NAME          DCAP_3_3_2_300_SS19
ROWS
 N  OBJ
 L  CON1
 L  CON2
 L  CON3
 L  CON4
 L  CON5
 L  CON6
 L  CON7
 L  CON8
 L  CON9
 L  CON10
 L  CON11
 L  CON12
 E  CON13
 E  CON14
 E  CON15
 E  CON16
 E  CON17
 E  CON18
COLUMNS
    x[1,1]    OBJ       6.180167      CON1      1.000000    
    x[1,1]    CON7      -1.000000     CON8      -1.000000   
    x[1,2]    OBJ       5.039546      CON2      1.000000    
    x[1,2]    CON8      -1.000000   
    x[2,1]    OBJ       6.732585      CON3      1.000000    
    x[2,1]    CON9      -1.000000     CON10     -1.000000   
    x[2,2]    OBJ       7.443064      CON4      1.000000    
    x[2,2]    CON10     -1.000000   
    x[3,1]    OBJ       6.563535      CON5      1.000000    
    x[3,1]    CON11     -1.000000     CON12     -1.000000   
    x[3,2]    OBJ       6.054841      CON6      1.000000    
    x[3,2]    CON12     -1.000000   
    MARKER    'MARKER'                'INTORG'
    u[1,1]    OBJ       48.076654     CON1      -1.000000   
    u[1,2]    OBJ       49.466655     CON2      -1.000000   
    u[2,1]    OBJ       49.996186     CON3      -1.000000   
    u[2,2]    OBJ       32.230043     CON4      -1.000000   
    u[3,1]    OBJ       20.066487     CON5      -1.000000   
    u[3,2]    OBJ       27.484319     CON6      -1.000000   
    y[1,1,1]  OBJ       7.190673      CON7      0.893786    
    y[1,1,1]  CON13     1.000000    
    y[1,1,2]  OBJ       9.776537      CON8      1.156207    
    y[1,1,2]  CON14     1.000000    
    y[1,2,1]  OBJ       6.467404      CON7      1.161146    
    y[1,2,1]  CON15     1.000000    
    y[1,2,2]  OBJ       9.249735      CON8      0.535898    
    y[1,2,2]  CON16     1.000000    
    y[1,3,1]  OBJ       7.136947      CON7      1.427443    
    y[1,3,1]  CON17     1.000000    
    y[1,3,2]  OBJ       6.191759      CON8      1.158982    
    y[1,3,2]  CON18     1.000000    
    y[2,1,1]  OBJ       7.079151      CON9      0.893786    
    y[2,1,1]  CON13     1.000000    
    y[2,1,2]  OBJ       8.122049      CON10     1.156207    
    y[2,1,2]  CON14     1.000000    
    y[2,2,1]  OBJ       5.004355      CON9      1.161146    
    y[2,2,1]  CON15     1.000000    
    y[2,2,2]  OBJ       5.133321      CON10     0.535898    
    y[2,2,2]  CON16     1.000000    
    y[2,3,1]  OBJ       5.546893      CON9      1.427443    
    y[2,3,1]  CON17     1.000000    
    y[2,3,2]  OBJ       9.947068      CON10     1.158982    
    y[2,3,2]  CON18     1.000000    
    y[3,1,1]  OBJ       6.325351      CON11     0.893786    
    y[3,1,1]  CON13     1.000000    
    y[3,1,2]  OBJ       6.385920      CON12     1.156207    
    y[3,1,2]  CON14     1.000000    
    y[3,2,1]  OBJ       6.571073      CON11     1.161146    
    y[3,2,1]  CON15     1.000000    
    y[3,2,2]  OBJ       6.588211      CON12     0.535898    
    y[3,2,2]  CON16     1.000000    
    y[3,3,1]  OBJ       9.707466      CON11     1.427443    
    y[3,3,1]  CON17     1.000000    
    y[3,3,2]  OBJ       7.199633      CON12     1.158982    
    y[3,3,2]  CON18     1.000000    
    z[1,1]    OBJ       668.987707    CON13     1.000000    
    z[1,2]    OBJ       976.612273    CON14     1.000000    
    z[2,1]    OBJ       829.792165    CON15     1.000000    
    z[2,2]    OBJ       921.822546    CON16     1.000000    
    z[3,1]    OBJ       919.476953    CON17     1.000000    
    z[3,2]    OBJ       849.709668    CON18     1.000000    
    MARKER    'MARKER'                 'INTEND'
RHS
    RHS       CON1      -0.000000     CON2      -0.000000   
    RHS       CON3      -0.000000     CON4      -0.000000   
    RHS       CON5      -0.000000     CON6      -0.000000   
    RHS       CON7      -0.000000     CON8      -0.000000   
    RHS       CON9      -0.000000     CON10     -0.000000   
    RHS       CON11     -0.000000     CON12     -0.000000   
    RHS       CON13     1.000000      CON14     1.000000    
    RHS       CON15     1.000000      CON16     1.000000    
    RHS       CON17     1.000000      CON18     1.000000    
BOUNDS
 BV BOUND     u[1,1]  
 BV BOUND     u[1,2]  
 BV BOUND     u[2,1]  
 BV BOUND     u[2,2]  
 BV BOUND     u[3,1]  
 BV BOUND     u[3,2]  
 BV BOUND     y[1,1,1]
 BV BOUND     y[1,1,2]
 BV BOUND     y[1,2,1]
 BV BOUND     y[1,2,2]
 BV BOUND     y[1,3,1]
 BV BOUND     y[1,3,2]
 BV BOUND     y[2,1,1]
 BV BOUND     y[2,1,2]
 BV BOUND     y[2,2,1]
 BV BOUND     y[2,2,2]
 BV BOUND     y[2,3,1]
 BV BOUND     y[2,3,2]
 BV BOUND     y[3,1,1]
 BV BOUND     y[3,1,2]
 BV BOUND     y[3,2,1]
 BV BOUND     y[3,2,2]
 BV BOUND     y[3,3,1]
 BV BOUND     y[3,3,2]
 BV BOUND     z[1,1]  
 BV BOUND     z[1,2]  
 BV BOUND     z[2,1]  
 BV BOUND     z[2,2]  
 BV BOUND     z[3,1]  
 BV BOUND     z[3,2]  
ENDATA
